solution status: optimal solution found
objective value:                                   14
x71                                                 1 	(obj:1)
x76                                                 1 	(obj:1)
x82                                                 1 	(obj:1)
x89                                                 1 	(obj:1)
x90                                                 1 	(obj:1)
x92                                                 1 	(obj:1)
x97                                                 1 	(obj:1)
x98                                                 1 	(obj:1)
x99                                                 1 	(obj:1)
x101                                                1 	(obj:1)
x111                                                1 	(obj:1)
x113                                                1 	(obj:1)
x115                                                1 	(obj:1)
x144                                                1 	(obj:1)
$_118_y                                            20 	(obj:0)
$_118_z                                            19 	(obj:0)
$_127_y                                            17 	(obj:0)
$_127_z                                            19 	(obj:0)
$_17_y                                             14 	(obj:0)
$_17_z                                             15 	(obj:0)
$_129_y                                            20 	(obj:0)
$_129_z                                            18 	(obj:0)
$_140_y                                            18 	(obj:0)
$_140_z                                            19 	(obj:0)
$_2_y                                              14 	(obj:0)
$_2_z                                              17 	(obj:0)
$_114_y                                            18 	(obj:0)
$_114_z                                            18 	(obj:0)
$_65_y                                             17 	(obj:0)
$_65_z                                             17 	(obj:0)
$_116_y                                            19 	(obj:0)
$_116_z                                            20 	(obj:0)
$_7_y                                              15 	(obj:0)
$_7_z                                              15 	(obj:0)
$_104_y                                            16 	(obj:0)
$_104_z                                            16 	(obj:0)
$_126_y                                            18 	(obj:0)
$_126_z                                            20 	(obj:0)
$_77_y                                             21 	(obj:0)
$_77_z                                             18 	(obj:0)
$_90_y                                             20 	(obj:0)
$_90_z                                             17 	(obj:0)
$_112_y                                            18 	(obj:0)
$_112_z                                            17 	(obj:0)
$_128_y                                            20 	(obj:0)
$_128_z                                            20 	(obj:0)
$_18_y                                             15 	(obj:0)
$_18_z                                             13 	(obj:0)
$_89_y                                             17 	(obj:0)
$_89_z                                             15 	(obj:0)
$_113_y                                            15 	(obj:0)
$_113_z                                            18 	(obj:0)
$_102_y                                            15 	(obj:0)
$_102_z                                            19 	(obj:0)
$_16_y                                             15 	(obj:0)
$_16_z                                             17 	(obj:0)
$_92_y                                             20 	(obj:0)
$_92_z                                             21 	(obj:0)
$_88_y                                             19 	(obj:0)
$_88_z                                             18 	(obj:0)
$_9_y                                              15 	(obj:0)
$_9_z                                              16 	(obj:0)
$_4_y                                              14 	(obj:0)
$_4_z                                              13 	(obj:0)
$_136_y                                            17 	(obj:0)
$_136_z                                            18 	(obj:0)
$_124_y                                            17 	(obj:0)
$_124_z                                            20 	(obj:0)
$_125_y                                            17 	(obj:0)
$_125_z                                            16 	(obj:0)
$_84_y                                             19 	(obj:0)
$_84_z                                             16 	(obj:0)
$_100_y                                            18 	(obj:0)
$_100_z                                            15 	(obj:0)
$_82_y                                             21 	(obj:0)
$_82_z                                             19 	(obj:0)
$_86_y                                             19 	(obj:0)
$_86_z                                             14 	(obj:0)
$_3_y                                              14 	(obj:0)
$_3_z                                              14 	(obj:0)
$_101_y                                            19 	(obj:0)
$_101_z                                            17 	(obj:0)
$_117_y                                            19 	(obj:0)
$_117_z                                            19 	(obj:0)
